1979, 0, 0, 93, 3
1980, 0, 1, 64, 0
1981, 0, 2, 59, 1
1982, 0, 3, 92, 2
1983, 1, 0, 89, 1
1984, 1, 1, 35, 3
1985, 1, 2, 53, 2
1986, 1, 3, 62, 0
1987, 2, 0, 91, 2
1988, 2, 1, 98, 3
1989, 2, 2, 73, 1
1990, 2, 3, 30, 0
1991, 3, 0, 98, 3
1992, 3, 1, 34, 0
1993, 3, 2, 66, 1
1994, 3, 3, 30, 2
